objective value:                                   -7
t_n_15                                              1 	(obj:-1)
t_n_632                                             1 	(obj:-1)
t_n_740                                             1 	(obj:-1)
t_n_752                                             1 	(obj:-1)
t_n_836                                             1 	(obj:-1)
t_n_839                                             1 	(obj:-1)
t_n_867                                             1 	(obj:-1)
